NAME: rand_0/map9_180
TYPE: TSP
COMMENT: autogenerated using a wonderful map creator
DIMENSION: 210
EDGE_WEIGHT_TYPE: EUC_2D
NODE_COORD_SECTION
1 6.0 1.0
2 61.0 18.0
3 15.0 60.0
4 2.0 2.0
5 58.0 18.0
6 47.0 58.0
7 61.0 22.0
8 62.0 17.0
9 57.0 21.0
10 57.0 23.0
11 43.0 58.0
12 41.0 62.0
13 60.0 21.0
14 44.0 57.0
15 47.0 59.0
16 13.0 58.0
17 1.0 1.0
18 59.0 19.0
19 3.0 4.0
20 4.0 6.0
21 12.0 61.0
22 15.0 62.0
23 58.0 21.0
24 46.0 60.0
25 5.0 1.0
26 11.0 57.0
27 14.0 61.0
28 12.0 57.0
29 14.0 60.0
30 43.0 61.0
31 63.0 18.0
32 46.0 59.0
33 1.0 5.0
34 63.0 20.0
35 41.0 59.0
36 59.0 23.0
37 47.0 62.0
38 41.0 57.0
39 10.0 57.0
40 45.0 57.0
41 14.0 58.0
42 62.0 22.0
43 1.0 6.0
44 63.0 22.0
45 47.0 57.0
46 4.0 7.0
47 13.0 62.0
48 58.0 20.0
49 44.0 60.0
50 7.0 1.0
51 2.0 5.0
52 40.0 60.0
53 1.0 2.0
54 2.0 6.0
55 3.0 7.0
56 10.0 62.0
57 59.0 24.0
58 62.0 20.0
59 58.0 22.0
60 13.0 60.0
61 7.0 17.0
62 4.0 9.0
63 2.0 39.0
64 63.0 25.0
65 19.0 55.0
66 62.0 35.0
67 4.0 30.0
68 4.0 39.0
69 13.0 17.0
70 58.0 49.0
71 53.0 62.0
72 1.0 33.0
73 55.0 22.0
74 28.0 5.0
75 42.0 4.0
76 57.0 13.0
77 46.0 13.0
78 9.0 28.0
79 20.0 58.0
80 7.0 58.0
81 44.0 22.0
82 27.0 36.0
83 42.0 34.0
84 2.0 25.0
85 28.0 53.0
86 54.0 17.0
87 36.0 20.0
88 49.0 39.0
89 14.0 17.0
90 46.0 52.0
91 63.0 38.0
92 58.0 26.0
93 4.0 34.0
94 42.0 18.0
95 25.0 11.0
96 59.0 43.0
97 41.0 37.0
98 61.0 49.0
99 35.0 30.0
100 30.0 43.0
101 9.0 42.0
102 9.0 51.0
103 31.0 26.0
104 22.0 23.0
105 51.0 59.0
106 4.0 36.0
107 44.0 17.0
108 6.0 63.0
109 44.0 26.0
110 53.0 59.0
111 4.0 54.0
112 63.0 15.0
113 17.0 57.0
114 29.0 22.0
115 60.0 55.0
116 31.0 19.0
117 63.0 33.0
118 26.0 41.0
119 11.0 4.0
120 35.0 53.0
121 43.0 11.0
122 42.0 13.0
123 23.0 42.0
124 47.0 45.0
125 33.0 37.0
126 22.0 9.0
127 6.0 22.0
128 20.0 21.0
129 31.0 21.0
130 46.0 49.0
131 38.0 45.0
132 14.0 23.0
133 49.0 45.0
134 10.0 1.0
135 53.0 36.0
136 29.0 51.0
137 25.0 8.0
138 13.0 18.0
139 63.0 1.0
140 5.0 41.0
141 51.0 38.0
142 39.0 18.0
143 51.0 47.0
144 15.0 27.0
145 30.0 58.0
146 20.0 23.0
147 11.0 54.0
148 52.0 55.0
149 38.0 38.0
150 38.0 47.0
151 50.0 12.0
152 27.0 10.0
153 61.0 12.0
154 1.0 55.0
155 47.0 22.0
156 4.0 33.0
157 17.0 18.0
158 18.0 59.0
159 34.0 43.0
160 62.0 59.0
161 9.0 23.0
162 37.0 39.0
163 27.0 37.0
164 63.0 3.0
165 20.0 62.0
166 46.0 26.0
167 10.0 39.0
168 14.0 9.0
169 60.0 6.0
170 10.0 5.0
171 62.0 43.0
172 25.0 3.0
173 11.0 22.0
174 49.0 6.0
175 57.0 37.0
176 9.0 52.0
177 5.0 63.0
178 12.0 14.0
179 26.0 31.0
180 51.0 60.0
181 35.0 43.0
182 49.0 42.0
183 1.0 41.0
184 52.0 50.0
185 35.0 52.0
186 13.0 52.0
187 25.0 51.0
188 28.0 13.0
189 61.0 25.0
190 20.0 39.0
191 36.0 35.0
192 1.0 13.0
193 9.0 18.0
194 14.0 41.0
195 4.0 49.0
196 41.0 43.0
197 60.0 1.0
198 26.0 42.0
199 52.0 6.0
200 7.0 38.0
201 47.0 37.0
202 36.0 37.0
203 31.0 50.0
204 43.0 15.0
205 5.0 31.0
206 9.0 29.0
207 41.0 27.0
208 22.0 1.0
209 3.0 52.0
210 21.0 3.0
211 31.0 13.0
212 59.0 51.0
213 55.0 62.0
214 36.0 21.0
215 10.0 11.0
216 51.0 12.0
217 27.0 27.0
218 46.0 7.0
219 20.0 52.0
220 34.0 51.0
221 15.0 10.0
222 20.0 6.0
223 61.0 41.0
224 33.0 34.0
225 35.0 31.0
226 15.0 28.0
227 62.0 15.0
228 15.0 37.0
229 53.0 30.0
230 28.0 10.0
231 17.0 10.0
232 28.0 19.0
233 34.0 35.0
234 52.0 22.0
235 28.0 37.0
236 9.0 33.0
237 37.0 49.0
238 58.0 47.0
239 60.0 44.0
240 23.0 59.0
START_DEPOT_SECTION
1
2
3
4
5
6
7
8
9
10
11
12
13
14
15
16
17
18
19
20
21
22
23
24
25
26
27
28
29
30
-1
END_DEPOT_SECTION
31
32
33
34
35
36
37
38
39
40
41
42
43
44
45
46
47
48
49
50
51
52
53
54
55
56
57
58
59
60
-1
EOF
